34 26
12 578
6 615
10 191
13 958
14 413
18 57
7 629
19 518
3 269
14 885
8 607
4 882
16 581
18 554
12 916
6 909
5 13
7 995
20 739
2 918
22 185
25 905
20 359
23 374
13 496
16 464
7 63
15 84
18 494
21 406
4 716
20 93
18 732
18 572
